NAME: GRASP_26_12
TYPE: TSP
COMMENT: line_26_12
DIMENSION: 26
EDGE_WEIGHT_TYPE: EUC_2D
NODE_COORD_SECTION
1 3931 2488
2 1860 1104
3 2544 2089
4 354 1570
5 2578 2826
6 643 2512
7 153 1243
8 2402 1793
9 955 2824
10 3419 521
11 3920 4405
12 1610 4334
13 2358 1086
14 576 2059
15 4520 2099
16 4836 935
17 4155 3077
18 3884 2232
19 1020 771
20 3117 4401
21 2458 3777
22 3964 2557
23 1120 3266
24 3970 2033
25 4220 4215
26 1085 4420
